WARNING: for repeatability, setting FPU to use double precision
============================[ Problem Statistics ]=============================
|                                                                             |
|  Number of variables:            35                                         |
|  Number of clauses:             112                                         |
|  Parse time:                   0.00 s                                       |
|                                                                             |
============================[ Search Statistics ]==============================
| Conflicts |          ORIGINAL         |          LEARNT          | Progress |
|           |    Vars  Clauses Literals |    Limit  Clauses Lit/Cl |          |
===============================================================================
|       100 |      35      112      245 |       41       32      6 |  0.490 % |
===============================================================================
restarts              : 2
conflicts             : 187            (48622 /sec)
decisions             : 230            (0.00 % random) (59802 /sec)
propagations          : 2409           (626365 /sec)
conflict literals     : 1348           (15.54 % deleted)
Memory used           : 11.00 MB
CPU time              : 0.003846 s

UNSATISFIABLE
